Version identifier: 20.1.0.0 | 2020-11-10 | 9bedb6d68
CPXPARAM_Threads                                 1
CPXPARAM_TimeLimit                               7200
CPXPARAM_MIP_Tolerances_MIPGap                   0
Generic callback                                 0x60
1 of 1 MIP starts provided solutions.
MIP start 'm1' defined initial solution with objective 2878.8985.
Tried aggregator 1 time.
Reduced MIP has 1 rows, 801 columns, and 800 nonzeros.
Reduced MIP has 800 binaries, 0 generals, 0 SOSs, and 0 indicators.
Presolve time = 0.00 sec. (0.24 ticks)
Probing time = 0.00 sec. (0.09 ticks)
Tried aggregator 1 time.
Reduced MIP has 1 rows, 801 columns, and 800 nonzeros.
Reduced MIP has 800 binaries, 0 generals, 0 SOSs, and 0 indicators.
Presolve time = 0.00 sec. (0.25 ticks)
Probing time = 0.00 sec. (0.09 ticks)
MIP emphasis: balance optimality and feasibility.
MIP search method: dynamic search.
Parallel mode: none, using 1 thread.
Root relaxation solution time = 0.00 sec. (0.17 ticks)

        Nodes                                         Cuts/
   Node  Left     Objective  IInf  Best Integer    Best Bound    ItCnt     Gap

*     0+    0                         2878.8985     4368.0000            51.72%
      0     0     4368.0000     2     2878.8985     4368.0000        0   51.72%
      0     0     3578.9355     3     2878.8985 UserPurge2: 1        8   24.32%
      0     0     3390.1507     4     2878.8985 UserPurge2: 1       17   17.76%
      0     0     3268.3055     5     2878.8985 UserPurge2: 1       25   13.53%
      0     0     3231.1692     7     2878.8985 UserPurge2: 1       40   12.24%
      0     0     3146.6798     7     2878.8985 UserPurge2: 1       56    9.30%
      0     0     3119.3008     8     2878.8985 UserPurge2: 1       71    8.35%
      0     0     3102.7225     9     2878.8985 UserPurge2: 1       92    7.77%
      0     0     3091.1970     8     2878.8985 UserPurge2: 1      121    7.37%
      0     0     3080.4710     8     2878.8985 UserPurge2: 1      144    7.00%
      0     0     3076.1962    10     2878.8985 UserPurge1: 1      157    6.85%
*     0+    0                         2880.3067     3076.1962             6.80%
      0     0     3060.7742    10     2880.3067 UserPurge2: 1      188    6.27%
      0     0     3057.3664    12     2880.3067 UserPurge2: 1      196    6.15%
      0     0     3049.4008    11     2880.3067 UserPurge2: 1      212    5.87%
*     0+    0                         2884.7911     3049.4008             5.71%
      0     0     3036.5931     9     2884.7911 UserPurge2: 1      238    5.26%
      0     0     3025.6489     9     2884.7911 UserPurge2: 1      257    4.88%
      0     0     3021.0557    10     2884.7911 UserPurge2: 1      271    4.72%
      0     0     3016.0713     9     2884.7911 UserPurge2: 1      288    4.55%
      0     0     3015.6050    10     2884.7911 UserPurge1: 2      291    4.53%
      0     0     3013.4035     9     2884.7911 UserPurge2: 1      308    4.46%
*     0+    0                         2903.0764     3013.4035             3.80%
      0     0     3010.3816     9     2903.0764 UserPurge2: 1      327    3.70%
      0     0     3008.9184    11     2903.0764 UserPurge2: 1      345    3.65%
      0     0     3004.5671    11     2903.0764 UserPurge2: 1      369    3.50%
      0     0     3000.8143    10     2903.0764 UserPurge2: 1      387    3.37%
      0     0     2998.1532    10     2903.0764 UserPurge2: 1      412    3.28%
      0     0     2993.9660    10     2903.0764 UserPurge2: 1      426    3.13%
      0     0     2990.2105    11     2903.0764 UserPurge2: 1      451    3.00%
      0     0     2988.3423    11     2903.0764 UserPurge2: 1      463    2.94%
*     0+    0                         2915.7993     2988.3423             2.49%
      0     0     2986.2408    11     2915.7993 UserPurge2: 1      486    2.42%
      0     0     2985.5081    12     2915.7993 UserPurge2: 1      501    2.39%
      0     0     2983.8908    12     2915.7993 UserPurge2: 1      511    2.34%
      0     0     2983.3489    13     2915.7993 UserPurge2: 1      515    2.32%
      0     0     2982.7621    13     2915.7993 UserPurge2: 1      527    2.30%
      0     0     2982.4041    14     2915.7993 UserPurge2: 1      539    2.28%
      0     0     2981.9696    14     2915.7993 UserPurge2: 1      555    2.27%
      0     0     2981.1137    15     2915.7993 UserPurge2: 1      581    2.24%
      0     0     2980.8730    16     2915.7993 UserPurge2: 1      590    2.23%
      0     0     2979.5815    16     2915.7993 UserPurge2: 1      607    2.19%
      0     0     2977.1545    13     2915.7993 UserPurge2: 1      630    2.10%
      0     0     2976.5305    13     2915.7993 UserPurge2: 1      632    2.08%
      0     0     2975.5738    14     2915.7993 UserPurge2: 1      644    2.05%
      0     0     2974.1875    15     2915.7993 UserPurge2: 1      672    2.00%
      0     0     2973.0138    15     2915.7993 UserPurge2: 1      692    1.96%
      0     0     2972.3011    16     2915.7993 UserPurge2: 1      708    1.94%
      0     0     2972.0343    16     2915.7993 UserPurge2: 1      720    1.93%
      0     0     2970.5692    16     2915.7993 UserPurge2: 1      741    1.88%
      0     0     2967.7482    14     2915.7993 UserPurge2: 1      764    1.78%
      0     0     2966.6178    14     2915.7993 UserPurge2: 1      776    1.74%
      0     0     2966.0373    14     2915.7993 UserPurge2: 1      786    1.72%
      0     0     2965.7065    14     2915.7993 UserPurge2: 1      795    1.71%
      0     0     2965.3299    15     2915.7993 UserPurge2: 1      805    1.70%
      0     0     2965.1676    16     2915.7993 UserPurge2: 1      811    1.69%
      0     0     2964.9007    17     2915.7993 UserPurge2: 1      824    1.68%
      0     0     2964.7719    18     2915.7993 UserPurge2: 1      833    1.68%
      0     0     2964.3901    17     2915.7993 UserPurge2: 1      845    1.67%
      0     0     2963.9887    16     2915.7993 UserPurge2: 1      870    1.65%
      0     0     2963.6773    16     2915.7993 UserPurge2: 1      886    1.64%
      0     0     2963.5629    17     2915.7993 UserPurge2: 1      896    1.64%
      0     0     2963.4240    18     2915.7993 UserPurge2: 1      903    1.63%
      0     0     2962.5087    17     2915.7993 UserPurge2: 1      929    1.60%
      0     0     2962.0094    17     2915.7993 UserPurge2: 1      943    1.58%
      0     0     2961.2669    17     2915.7993 UserPurge2: 1      962    1.56%
      0     0     2960.3785    14     2915.7993 UserPurge2: 1      980    1.53%
      0     0     2960.1674    15     2915.7993 UserPurge2: 1      991    1.52%
      0     0     2959.9699    16     2915.7993 UserPurge2: 1     1004    1.51%
      0     0     2959.6899    16     2915.7993 UserPurge2: 1     1021    1.51%
      0     0     2959.5053    17     2915.7993 UserPurge2: 1     1027    1.50%
      0     0     2959.0926    17     2915.7993 UserPurge2: 1     1048    1.48%
      0     0     2958.8086    17     2915.7993 UserPurge2: 1     1061    1.48%
      0     0     2958.7141    18     2915.7993 UserPurge2: 1     1069    1.47%
      0     0     2958.6046    18     2915.7993 UserPurge2: 1     1079    1.47%
      0     0     2958.5103    19     2915.7993 UserPurge2: 1     1087    1.46%
      0     0     2958.2969    19     2915.7993 UserPurge2: 1     1108    1.46%
      0     0     2958.0089    20     2915.7993 UserPurge2: 1     1127    1.45%
      0     0     2957.8214    20     2915.7993 UserPurge2: 1     1146    1.44%
      0     0     2957.6445    21     2915.7993 UserPurge2: 1     1163    1.44%
      0     0     2957.2385    19     2915.7993 UserPurge2: 1     1185    1.42%
      0     0     2956.9267    20     2915.7993 UserPurge2: 1     1209    1.41%
      0     0     2956.8224    21     2915.7993 UserPurge2: 1     1227    1.41%
      0     0     2956.2811    21     2915.7993 UserPurge2: 1     1264    1.39%
      0     0     2955.7458    19     2915.7993 UserPurge2: 1     1290    1.37%
      0     0     2955.2880    19     2915.7993 UserPurge2: 1     1304    1.35%
      0     0     2954.7706    18     2915.7993 UserPurge2: 1     1328    1.34%
      0     0     2954.6567    19     2915.7993 UserPurge2: 1     1343    1.33%
      0     0     2954.5476    19     2915.7993 UserPurge2: 1     1353    1.33%
      0     0     2954.1524    18     2915.7993 UserPurge2: 1     1376    1.32%
      0     0     2954.0559    19     2915.7993 UserPurge2: 1     1388    1.31%
      0     0     2954.0188    20     2915.7993 UserPurge2: 1     1399    1.31%
      0     0     2953.9901    21     2915.7993 UserPurge2: 1     1406    1.31%
      0     0     2953.8446    21     2915.7993 UserPurge2: 1     1418    1.30%
      0     0     2953.4576    20     2915.7993 UserPurge2: 1     1448    1.29%
      0     0     2952.8183    18     2915.7993 UserPurge2: 1     1473    1.27%
      0     0     2952.6370    18     2915.7993 UserPurge2: 1     1487    1.26%
      0     0     2952.5192    19     2915.7993 UserPurge2: 1     1497    1.26%
      0     0     2952.3367    20     2915.7993 UserPurge2: 1     1509    1.25%
      0     0     2952.2342    21     2915.7993 UserPurge2: 1     1521    1.25%
      0     0     2952.0535    21     2915.7993 UserPurge2: 1     1538    1.24%
      0     0     2951.9544    22     2915.7993 UserPurge2: 1     1549    1.24%
      0     0     2951.7107    21     2915.7993 UserPurge2: 1     1579    1.23%
      0     0     2951.6278    21     2915.7993 UserPurge2: 1     1593    1.23%
      0     0     2951.5823    22     2915.7993 UserPurge2: 1     1605    1.23%
      0     0     2951.1825    21     2915.7993 UserPurge2: 1     1625    1.21%
      0     0     2950.8059    20     2915.7993 UserPurge2: 1     1644    1.20%
      0     0     2950.7703    20     2915.7993 UserPurge2: 1     1655    1.20%
      0     0     2950.6662    20     2915.7993 UserPurge2: 1     1668    1.20%
      0     0     2950.5421    20     2915.7993 UserPurge2: 1     1677    1.19%
      0     0     2950.3837    20     2915.7993 UserPurge2: 1     1684    1.19%
      0     0     2950.2840    20     2915.7993 UserPurge2: 1     1692    1.18%
      0     0     2950.2107    21     2915.7993 UserPurge2: 1     1707    1.18%
      0     0     2950.1132    22     2915.7993 UserPurge2: 1     1723    1.18%
      0     0     2949.8757    23     2915.7993 UserPurge2: 1     1746    1.17%
      0     0     2949.7048    23     2915.7993 UserPurge2: 1     1763    1.16%
*     0+    0                         2921.1720     2949.7048             0.98%
      0     2     2949.7048    23     2921.1720     2949.6946     1763    0.98%
Elapsed time = 72.70 sec. (640.92 ticks, tree = 0.01 MB, solutions = 6)
      1     3     2936.6590    38     2921.1720     2949.6946    50654    0.98%
      2     4     2933.4100    14     2921.1720     2936.6590    53608    0.53%
      3     5     2930.8777     6     2921.1720     2936.6590    54972    0.53%
      4     6     2930.6218     8     2921.1720     2936.6590    55385    0.53%
      5     7     2930.7271     4     2921.1720     2936.6590    55498    0.53%
      7     9     2928.5256     2     2921.1720     2936.6590    55625    0.53%
      8    10     2928.3009     2     2921.1720     2936.6590    55670    0.53%
*     9     9      integral     0     2924.4932     2936.6590    55674    0.42%
*    10+    8                         2927.5375     2936.6590             0.31%
     10    10     2928.1743     2     2927.5375     2936.6590    55679    0.31%
     14     8     2936.2451    27     2927.5375     2936.6590    77045    0.31%
     15     9     2936.1472    34     2927.5375     2936.6590    91863    0.31%
Elapsed time = 904.68 sec. (264210.95 ticks, tree = 0.27 MB, solutions = 8)
     16    10     2934.6515    12     2927.5375     2936.6590    96562    0.31%
     17    11     2934.5339    15     2927.5375     2936.6590    98429    0.31%
     19    13     2933.9485     4     2927.5375     2936.6590    98796    0.31%
     20    13     2927.6074     2     2927.5375     2936.6590    98926    0.31%
     21    14     2933.8924     4     2927.5375     2936.6590    99018    0.31%
     23    14     2933.7216     4     2927.5375     2936.6590    99189    0.31%
     25    14     2933.4796     4     2927.5375     2936.6590    99416    0.31%
     27    14     2933.3924     4     2927.5375     2936.6590    99591    0.31%
     29    14     2933.3139     4     2927.5375     2936.6590    99739    0.31%
     31    14     2933.2586     4     2927.5375     2936.6590    99902    0.31%
Elapsed time = 1171.28 sec. (325153.73 ticks, tree = 0.63 MB, solutions = 8)
     33    14     2933.1837     4     2927.5375     2936.6590   100058    0.31%
     34    15     2930.4188     2     2927.5375     2936.6590   100183    0.31%
     37    16     2933.0347     7     2927.5375     2936.6590   100416    0.31%
     39    16     2932.8402     7     2927.5375     2936.6590   100647    0.31%
*    40+    8                         2931.9247     2936.6590             0.16%
     43     9        cutoff           2931.9247     2936.6590   100700    0.16%
     45     9     2935.0508    14     2931.9247     2936.1472   106243    0.14%
     46    10     2934.8560    17     2931.9247     2936.1472   108159    0.14%
     47    11     2934.5093    11     2931.9247     2936.1472   110247    0.14%
     48    12     2934.1427    15     2931.9247     2936.1472   112627    0.14%
     49    13     2933.7058     8     2931.9247     2936.1472   114847    0.14%
Elapsed time = 1566.53 sec. (447856.35 ticks, tree = 0.83 MB, solutions = 9)
     50    14     2932.9985    11     2931.9247     2936.1472   118428    0.14%
     51    15     2932.8109    11     2931.9247     2936.1472   121146    0.14%
     52    16     2932.6794    14     2931.9247     2936.1472   123421    0.14%
     53    17     2932.6378     9     2931.9247     2936.1472   125089    0.14%
     54    18     2932.4432    15     2931.9247     2936.1472   128630    0.14%
     55    19     2932.1485    20     2931.9247     2936.1472   133018    0.14%
     56    20     2931.9804    12     2931.9247     2936.1472   135459    0.14%
     57    19        cutoff           2931.9247     2936.1472   135740    0.14%
     59    19     2934.4039    12     2931.9247     2936.1472   139712    0.14%
*    60+   10                         2933.0267     2936.1472             0.11%
     60    12     2934.3400    11     2933.0267     2936.1472   140970    0.11%
Elapsed time = 2084.70 sec. (704748.83 ticks, tree = 0.82 MB, solutions = 10)
     61    13     2934.2137    11     2933.0267     2936.1472   142171    0.11%
     62    14     2934.1094    13     2933.0267     2936.1472   143855    0.11%
     63    15     2933.7442    18     2933.0267     2936.1472   147336    0.11%
     64    16     2933.4753    16     2933.0267     2936.1472   151716    0.11%
     65    17     2933.3677    23     2933.0267     2936.1472   154521    0.11%
     66    18     2933.1655    21     2933.0267     2936.1472   158958    0.11%
     69    17     2935.7898    27     2933.0267     2935.7898   173176    0.09%
     70    18     2935.1481    41     2933.0267     2935.7898   195091    0.09%
     71    19     2934.9603    25     2933.0267     2935.7898   209039    0.09%
     72    20     2934.8218    28     2933.0267     2935.7898   225168    0.09%
Elapsed time = 3589.76 sec. (1626801.81 ticks, tree = 1.95 MB, solutions = 10)
     73    21     2934.5721    29     2933.0267     2935.7898   238789    0.09%
     74    22     2934.1081    53     2933.0267     2935.7898   264402    0.09%
     75    23     2933.5803    44     2933.0267     2935.7898   294398    0.09%
     76    22        cutoff           2933.0267     2935.7898   296403    0.09%
     77    21        cutoff           2933.0267     2935.7898   296854    0.09%
     78    22     2933.5918    11     2933.0267     2935.1481   301031    0.07%
     79    23     2933.3098    16     2933.0267     2935.1481   303695    0.07%
     80    24     2933.3013     7     2933.0267     2935.1481   304501    0.07%
     81    25     2933.1820     9     2933.0267     2935.1481   305059    0.07%
     85    23     2933.2624    13     2933.0267     2935.0505   307498    0.07%
Elapsed time = 5460.26 sec. (2818831.93 ticks, tree = 2.70 MB, solutions = 10)
     86    24     2933.1522    10     2933.0267     2935.0505   308229    0.07%
     87    23        cutoff           2933.0267     2935.0505   308304    0.07%
     89    23     2934.5871     5     2933.0267     2934.9603   308916    0.07%
*    90    14      integral     0     2933.9361     2934.9603   308956    0.03%
     91    15     2934.2777     2     2933.9361     2934.9603   309199    0.03%
     92    16     2934.1995     2     2933.9361     2934.9603   309273    0.03%
     95    13        cutoff           2933.9361     2934.8555   309679    0.03%
     96    12        cutoff           2933.9361     2934.8217   310035    0.03%
     97    11        cutoff           2933.9361     2934.5720   312517    0.02%
     98    10        cutoff           2933.9361     2934.5339   312959    0.02%
Elapsed time = 5651.90 sec. (2920397.14 ticks, tree = 1.18 MB, solutions = 11)
     99    11     2934.4258    11     2933.9361     2934.5327   314757    0.02%
    100    12     2934.3896    11     2933.9361     2934.5327   316116    0.02%
    101    13     2934.2048    13     2933.9361     2934.5327   318470    0.02%
    102    12        cutoff           2933.9361     2934.5327   319040    0.02%
    104    10        cutoff           2933.9361     2934.5083   319281    0.02%
    105    11     2934.2126     4     2933.9361     2934.4258   319656    0.02%
    106    12     2934.0506     4     2933.9361     2934.4258   319781    0.02%
    107    13     2933.9550     6     2933.9361     2934.4258   319880    0.02%
    111     9        cutoff           2933.9361     2934.3894   320151    0.02%
    113     7        cutoff           2933.9361     2934.2766   320405    0.01%
Elapsed time = 5918.18 sec. (3067748.40 ticks, tree = 1.06 MB, solutions = 11)
    115     6     2933.9753     4     2933.9361     2934.2105   320662    0.01%
    117     4        cutoff           2933.9361     2934.1423   320674    0.01%
    119     2        cutoff           2933.9361     2934.1045   320882    0.01%

User cuts applied:  33232

Root node processing (before b&c):
  Real time             =   72.74 sec. (717.26 ticks)
Sequential b&c:
  Real time             = 5884.41 sec. (3075215.45 ticks)
                          ------------
Total (root+branch&cut) = 5957.15 sec. (3075932.71 ticks)
@Parameters: 
is_S_cut                                true
is_add_all_yinF                         true
is_start_value                          true
is_usercut                              true
is_visualization                        false
uc_only_rootnode                        false

data                                    Qi
fn                                      data/Qi/instance_800_800.csv
mode                                    NewSubmodular
solver                                  cplex

p                                       5
r                                       2

EPS                                     1.0e-06
EPS_vio                                 1.0e-04
beta                                    0.10
gap                                     0.00
nodelimit                               Inf
timelimit                               7200.00


@PrintInfos
ItCnt: 320928
Current gap: 0.00 %
Termination Status: OPTIMAL
Primal Status: FEASIBLE_POINT
Solve Time: 5957.15 sec
Objective Value: 2933.936139
Number of Nodes:    122

CutInfo: [phase] num / time (sec) 
ZLP             [phase1]     0 / 0.00 [rLC]     0 / 0.00 [rUC]     0 / 0.00 [sLC]     0 / 0.00 [sUC]     0 / 0.00 
OldSubmodular   [phase1]     0 / 0.00 [rLC]     0 / 0.00 [rUC]     0 / 0.00 [sLC]     0 / 0.00 [sUC]     0 / 0.00 
NewSubmodular   [phase1]     0 / 0.00 [rLC]   234 / 43.44 [rUC]   749 / 26.49 [sLC]     0 / 13.23 [sUC] 36283 / 2694.48 
PMP             [phase1]     0 / 0.00 [rLC]    15 / 37.08 [rUC]     0 / 0.00 [sLC]     5 / 13.15 [sUC]   149 / 415.52 
Separation Round: [phase1] 0  [rLC] 68  [rUC] 113  [sLC] 5  [sUC] 8392
Root Best Bound 2936.658980
Root Best Integer: 2921.171956
Best Bound: 2933.936139
Best Integer: 2933.936139

